50
10959

80 492
364 780
516 878
585 257
978 687
907 312
710 560
505 98
748 378
65 51
576 209
570 696
97 660
847 850
664 658
614 6
760 649
406 372
160 83
191 824
533 17
309 498
801 125
467 886
35 651
578 42
471 79
949 733
999 293
686 288
6 175
114 350
262 425
855 936
971 812
152 831
45 459
375 985
564 136
987 511
375 558
415 758
988 943
132 515
226 947
186 631
220 550
417 588
102 785
549 574
